============================[ Problem Statistics ]=============================|                                                                             ||  Number of variables:          4242                                         ||  Number of clauses:            9818                                         ||  Parse time:                   0.22 s                                       ||                                                                             |============================[ Search Statistics ]==============================| Conflicts |          ORIGINAL         |          LEARNT          | Progress ||           |    Vars  Clauses Literals |    Limit  Clauses Lit/Cl |          |===============================================================================|       100 |    1591     6023   329994 |     2208      100     53 | 62.501 % |===============================================================================restarts              : 2conflicts             : 130            (360 /sec)decisions             : 302            (0.00 % random) (837 /sec)propagations          : 9914           (27463 /sec)conflict literals     : 7928           (95.59 % deleted)CPU time              : 0.361 sSATISFIABLE